2 1
3 2
4 1
5 3
5 4
6 2
6 4
7 1
7 3
8 2
8 5
9 1
9 5
10 3
10 4
11 6
11 7
11 8
11 9
11 10
12 2
12 4
12 7
12 9
13 1
13 3
13 6
13 8
14 2
14 5
14 7
14 10
15 1
15 5
15 6
15 10
16 3
16 4
16 8
16 9
17 2
17 4
17 11
18 1
18 3
18 11
19 2
19 5
19 11
20 1
20 5
20 11
21 3
21 4
21 11
22 6
22 7
22 8
22 9
22 10
23 12
23 13
23 14
23 15
23 16
23 17
23 18
23 19
23 20
23 21
23 22
5